minimize
obj: 1 x_1_ + 1 x_2_ + 1 x_3_ + 1 x_4_ + 1 x_5_ + 1 x_6_ + 1 x_7_ + 1 x_8_ + 1 x_9_ + 1 x_10_ + 1 x_11_ + 1 x_12_ + 1 x_13_ + 1 x_14_ + 1 x_15_
subject to
c1_1: 1 t_1,1_ - 1 y_1,1_ <= 0
c2_1: 1 t_1,2_ - 1 y_1,1_ - 1 y_1,2_ <= 0
c3_1: 1 t_1,3_ - 1 y_1,2_ - 1 y_1,3_ <= 0
c4_1: 1 t_1,4_ - 1 y_1,3_ - 1 y_1,4_ <= 0
c5_1: 1 t_1,5_ - 1 y_1,4_ - 1 y_1,5_ <= 0
c6_1: 1 t_1,6_ - 1 y_1,5_ - 1 y_1,6_ <= 0
c7_1: 1 t_1,7_ - 1 y_1,6_ - 1 y_1,7_ <= 0
c8_1: 1 t_1,8_ - 1 y_1,7_ - 1 y_1,8_ <= 0
c9_1: 1 t_1,9_ - 1 y_1,8_ - 1 y_1,9_ <= 0
c10_1: 1 t_1,10_ - 1 y_1,9_ - 1 y_1,10_ <= 0
c11_1: 1 t_1,11_ - 1 y_1,10_ - 1 y_1,11_ <= 0
c12_1: 1 t_1,12_ - 1 y_1,11_ - 1 y_1,12_ <= 0
c13_1: 1 t_1,13_ - 1 y_1,12_ - 1 y_1,13_ <= 0
c14_1: 1 t_1,14_ - 1 y_1,13_ - 1 y_1,14_ <= 0
c15_1: 1 t_1,15_ - 1 y_1,14_ <= 0
c16_1: 1 t_2,1_ - 1 y_2,1_ <= 0
c17_1: 1 t_2,2_ - 1 y_2,1_ - 1 y_2,2_ <= 0
c18_1: 1 t_2,3_ - 1 y_2,2_ - 1 y_2,3_ <= 0
c19_1: 1 t_2,4_ - 1 y_2,3_ - 1 y_2,4_ <= 0
c20_1: 1 t_2,5_ - 1 y_2,4_ - 1 y_2,5_ <= 0
c21_1: 1 t_2,6_ - 1 y_2,5_ - 1 y_2,6_ <= 0
c22_1: 1 t_2,7_ - 1 y_2,6_ - 1 y_2,7_ <= 0
c23_1: 1 t_2,8_ - 1 y_2,7_ - 1 y_2,8_ <= 0
c24_1: 1 t_2,9_ - 1 y_2,8_ - 1 y_2,9_ <= 0
c25_1: 1 t_2,10_ - 1 y_2,9_ - 1 y_2,10_ <= 0
c26_1: 1 t_2,11_ - 1 y_2,10_ - 1 y_2,11_ <= 0
c27_1: 1 t_2,12_ - 1 y_2,11_ - 1 y_2,12_ <= 0
c28_1: 1 t_2,13_ - 1 y_2,12_ - 1 y_2,13_ <= 0
c29_1: 1 t_2,14_ - 1 y_2,13_ - 1 y_2,14_ <= 0
c30_1: 1 t_2,15_ - 1 y_2,14_ <= 0
c31_1: 1 t_3,1_ - 1 y_3,1_ <= 0
c32_1: 1 t_3,2_ - 1 y_3,1_ - 1 y_3,2_ <= 0
c33_1: 1 t_3,3_ - 1 y_3,2_ - 1 y_3,3_ <= 0
c34_1: 1 t_3,4_ - 1 y_3,3_ - 1 y_3,4_ <= 0
c35_1: 1 t_3,5_ - 1 y_3,4_ - 1 y_3,5_ <= 0
c36_1: 1 t_3,6_ - 1 y_3,5_ - 1 y_3,6_ <= 0
c37_1: 1 t_3,7_ - 1 y_3,6_ - 1 y_3,7_ <= 0
c38_1: 1 t_3,8_ - 1 y_3,7_ - 1 y_3,8_ <= 0
c39_1: 1 t_3,9_ - 1 y_3,8_ - 1 y_3,9_ <= 0
c40_1: 1 t_3,10_ - 1 y_3,9_ - 1 y_3,10_ <= 0
c41_1: 1 t_3,11_ - 1 y_3,10_ - 1 y_3,11_ <= 0
c42_1: 1 t_3,12_ - 1 y_3,11_ - 1 y_3,12_ <= 0
c43_1: 1 t_3,13_ - 1 y_3,12_ - 1 y_3,13_ <= 0
c44_1: 1 t_3,14_ - 1 y_3,13_ - 1 y_3,14_ <= 0
c45_1: 1 t_3,15_ - 1 y_3,14_ <= 0
c46: 1 t_4,1_ - 1 y_4,1_ <= 0
c47: 1 t_4,2_ - 1 y_4,1_ - 1 y_4,2_ <= 0
c48: 1 t_4,3_ - 1 y_4,2_ - 1 y_4,3_ <= 0
c49: 1 t_4,4_ - 1 y_4,3_ - 1 y_4,4_ <= 0
c50: 1 t_4,5_ - 1 y_4,4_ - 1 y_4,5_ <= 0
c51: 1 t_4,6_ - 1 y_4,5_ - 1 y_4,6_ <= 0
c52: 1 t_4,7_ - 1 y_4,6_ - 1 y_4,7_ <= 0
c53: 1 t_4,8_ - 1 y_4,7_ - 1 y_4,8_ <= 0
c54: 1 t_4,9_ - 1 y_4,8_ - 1 y_4,9_ <= 0
c55: 1 t_4,10_ - 1 y_4,9_ - 1 y_4,10_ <= 0
c56: 1 t_4,11_ - 1 y_4,10_ - 1 y_4,11_ <= 0
c57: 1 t_4,12_ - 1 y_4,11_ - 1 y_4,12_ <= 0
c58: 1 t_4,13_ - 1 y_4,12_ - 1 y_4,13_ <= 0
c59: 1 t_4,14_ - 1 y_4,13_ - 1 y_4,14_ <= 0
c60: 1 t_4,15_ - 1 y_4,14_ <= 0
c61: 1 t_5,1_ - 1 y_5,1_ <= 0
c62: 1 t_5,2_ - 1 y_5,1_ - 1 y_5,2_ <= 0
c63: 1 t_5,3_ - 1 y_5,2_ - 1 y_5,3_ <= 0
c64: 1 t_5,4_ - 1 y_5,3_ - 1 y_5,4_ <= 0
c65: 1 t_5,5_ - 1 y_5,4_ - 1 y_5,5_ <= 0
c66: 1 t_5,6_ - 1 y_5,5_ - 1 y_5,6_ <= 0
c67: 1 t_5,7_ - 1 y_5,6_ - 1 y_5,7_ <= 0
c68: 1 t_5,8_ - 1 y_5,7_ - 1 y_5,8_ <= 0
c69: 1 t_5,9_ - 1 y_5,8_ - 1 y_5,9_ <= 0
c70: 1 t_5,10_ - 1 y_5,9_ - 1 y_5,10_ <= 0
c71: 1 t_5,11_ - 1 y_5,10_ - 1 y_5,11_ <= 0
c72: 1 t_5,12_ - 1 y_5,11_ - 1 y_5,12_ <= 0
c73: 1 t_5,13_ - 1 y_5,12_ - 1 y_5,13_ <= 0
c74: 1 t_5,14_ - 1 y_5,13_ - 1 y_5,14_ <= 0
c75: 1 t_5,15_ - 1 y_5,14_ <= 0
c76: 1 t_6,1_ - 1 y_6,1_ <= 0
c77: 1 t_6,2_ - 1 y_6,1_ - 1 y_6,2_ <= 0
c78: 1 t_6,3_ - 1 y_6,2_ - 1 y_6,3_ <= 0
c79: 1 t_6,4_ - 1 y_6,3_ - 1 y_6,4_ <= 0
c80: 1 t_6,5_ - 1 y_6,4_ - 1 y_6,5_ <= 0
c81: 1 t_6,6_ - 1 y_6,5_ - 1 y_6,6_ <= 0
c82: 1 t_6,7_ - 1 y_6,6_ - 1 y_6,7_ <= 0
c83: 1 t_6,8_ - 1 y_6,7_ - 1 y_6,8_ <= 0
c84: 1 t_6,9_ - 1 y_6,8_ - 1 y_6,9_ <= 0
c85: 1 t_6,10_ - 1 y_6,9_ - 1 y_6,10_ <= 0
c86: 1 t_6,11_ - 1 y_6,10_ - 1 y_6,11_ <= 0
c87: 1 t_6,12_ - 1 y_6,11_ - 1 y_6,12_ <= 0
c88: 1 t_6,13_ - 1 y_6,12_ - 1 y_6,13_ <= 0
c89: 1 t_6,14_ - 1 y_6,13_ - 1 y_6,14_ <= 0
c90: 1 t_6,15_ - 1 y_6,14_ <= 0
c91: 1 t_7,1_ - 1 y_7,1_ <= 0
c92: 1 t_7,2_ - 1 y_7,1_ - 1 y_7,2_ <= 0
c93: 1 t_7,3_ - 1 y_7,2_ - 1 y_7,3_ <= 0
c94: 1 t_7,4_ - 1 y_7,3_ - 1 y_7,4_ <= 0
c95: 1 t_7,5_ - 1 y_7,4_ - 1 y_7,5_ <= 0
c96: 1 t_7,6_ - 1 y_7,5_ - 1 y_7,6_ <= 0
c97: 1 t_7,7_ - 1 y_7,6_ - 1 y_7,7_ <= 0
c98: 1 t_7,8_ - 1 y_7,7_ - 1 y_7,8_ <= 0
c99: 1 t_7,9_ - 1 y_7,8_ - 1 y_7,9_ <= 0
c100: 1 t_7,10_ - 1 y_7,9_ - 1 y_7,10_ <= 0
c101: 1 t_7,11_ - 1 y_7,10_ - 1 y_7,11_ <= 0
c102: 1 t_7,12_ - 1 y_7,11_ - 1 y_7,12_ <= 0
c103: 1 t_7,13_ - 1 y_7,12_ - 1 y_7,13_ <= 0
c104: 1 t_7,14_ - 1 y_7,13_ - 1 y_7,14_ <= 0
c105: 1 t_7,15_ - 1 y_7,14_ <= 0
c106: 1 t_8,1_ - 1 y_8,1_ <= 0
c107: 1 t_8,2_ - 1 y_8,1_ - 1 y_8,2_ <= 0
c108: 1 t_8,3_ - 1 y_8,2_ - 1 y_8,3_ <= 0
c109: 1 t_8,4_ - 1 y_8,3_ - 1 y_8,4_ <= 0
c110: 1 t_8,5_ - 1 y_8,4_ - 1 y_8,5_ <= 0
c111: 1 t_8,6_ - 1 y_8,5_ - 1 y_8,6_ <= 0
c112: 1 t_8,7_ - 1 y_8,6_ - 1 y_8,7_ <= 0
c113: 1 t_8,8_ - 1 y_8,7_ - 1 y_8,8_ <= 0
c114: 1 t_8,9_ - 1 y_8,8_ - 1 y_8,9_ <= 0
c115: 1 t_8,10_ - 1 y_8,9_ - 1 y_8,10_ <= 0
c116: 1 t_8,11_ - 1 y_8,10_ - 1 y_8,11_ <= 0
c117: 1 t_8,12_ - 1 y_8,11_ - 1 y_8,12_ <= 0
c118: 1 t_8,13_ - 1 y_8,12_ - 1 y_8,13_ <= 0
c119: 1 t_8,14_ - 1 y_8,13_ - 1 y_8,14_ <= 0
c120: 1 t_8,15_ - 1 y_8,14_ <= 0
c121: 1 t_9,1_ - 1 y_9,1_ <= 0
c122: 1 t_9,2_ - 1 y_9,1_ - 1 y_9,2_ <= 0
c123: 1 t_9,3_ - 1 y_9,2_ - 1 y_9,3_ <= 0
c124: 1 t_9,4_ - 1 y_9,3_ - 1 y_9,4_ <= 0
c125: 1 t_9,5_ - 1 y_9,4_ - 1 y_9,5_ <= 0
c126: 1 t_9,6_ - 1 y_9,5_ - 1 y_9,6_ <= 0
c127: 1 t_9,7_ - 1 y_9,6_ - 1 y_9,7_ <= 0
c128: 1 t_9,8_ - 1 y_9,7_ - 1 y_9,8_ <= 0
c129: 1 t_9,9_ - 1 y_9,8_ - 1 y_9,9_ <= 0
c130: 1 t_9,10_ - 1 y_9,9_ - 1 y_9,10_ <= 0
c131: 1 t_9,11_ - 1 y_9,10_ - 1 y_9,11_ <= 0
c132: 1 t_9,12_ - 1 y_9,11_ - 1 y_9,12_ <= 0
c133: 1 t_9,13_ - 1 y_9,12_ - 1 y_9,13_ <= 0
c134: 1 t_9,14_ - 1 y_9,13_ - 1 y_9,14_ <= 0
c135: 1 t_9,15_ - 1 y_9,14_ <= 0
c136: 1 t_10,1_ - 1 y_10,1_ <= 0
c137: 1 t_10,2_ - 1 y_10,1_ - 1 y_10,2_ <= 0
c138: 1 t_10,3_ - 1 y_10,2_ - 1 y_10,3_ <= 0
c139: 1 t_10,4_ - 1 y_10,3_ - 1 y_10,4_ <= 0
c140: 1 t_10,5_ - 1 y_10,4_ - 1 y_10,5_ <= 0
c141: 1 t_10,6_ - 1 y_10,5_ - 1 y_10,6_ <= 0
c142: 1 t_10,7_ - 1 y_10,6_ - 1 y_10,7_ <= 0
c143: 1 t_10,8_ - 1 y_10,7_ - 1 y_10,8_ <= 0
c144: 1 t_10,9_ - 1 y_10,8_ - 1 y_10,9_ <= 0
c145: 1 t_10,10_ - 1 y_10,9_ - 1 y_10,10_ <= 0
c146: 1 t_10,11_ - 1 y_10,10_ - 1 y_10,11_ <= 0
c147: 1 t_10,12_ - 1 y_10,11_ - 1 y_10,12_ <= 0
c148: 1 t_10,13_ - 1 y_10,12_ - 1 y_10,13_ <= 0
c149: 1 t_10,14_ - 1 y_10,13_ - 1 y_10,14_ <= 0
c150: 1 t_10,15_ - 1 y_10,14_ <= 0
c151: 1 t_11,1_ - 1 y_11,1_ <= 0
c152: 1 t_11,2_ - 1 y_11,1_ - 1 y_11,2_ <= 0
c153: 1 t_11,3_ - 1 y_11,2_ - 1 y_11,3_ <= 0
c154: 1 t_11,4_ - 1 y_11,3_ - 1 y_11,4_ <= 0
c155: 1 t_11,5_ - 1 y_11,4_ - 1 y_11,5_ <= 0
c156: 1 t_11,6_ - 1 y_11,5_ - 1 y_11,6_ <= 0
c157: 1 t_11,7_ - 1 y_11,6_ - 1 y_11,7_ <= 0
c158: 1 t_11,8_ - 1 y_11,7_ - 1 y_11,8_ <= 0
c159: 1 t_11,9_ - 1 y_11,8_ - 1 y_11,9_ <= 0
c160: 1 t_11,10_ - 1 y_11,9_ - 1 y_11,10_ <= 0
c161: 1 t_11,11_ - 1 y_11,10_ - 1 y_11,11_ <= 0
c162: 1 t_11,12_ - 1 y_11,11_ - 1 y_11,12_ <= 0
c163: 1 t_11,13_ - 1 y_11,12_ - 1 y_11,13_ <= 0
c164: 1 t_11,14_ - 1 y_11,13_ - 1 y_11,14_ <= 0
c165: 1 t_11,15_ - 1 y_11,14_ <= 0
c166: 1 t_12,1_ - 1 y_12,1_ <= 0
c167: 1 t_12,2_ - 1 y_12,1_ - 1 y_12,2_ <= 0
c168: 1 t_12,3_ - 1 y_12,2_ - 1 y_12,3_ <= 0
c169: 1 t_12,4_ - 1 y_12,3_ - 1 y_12,4_ <= 0
c170: 1 t_12,5_ - 1 y_12,4_ - 1 y_12,5_ <= 0
c171: 1 t_12,6_ - 1 y_12,5_ - 1 y_12,6_ <= 0
c172: 1 t_12,7_ - 1 y_12,6_ - 1 y_12,7_ <= 0
c173: 1 t_12,8_ - 1 y_12,7_ - 1 y_12,8_ <= 0
c174: 1 t_12,9_ - 1 y_12,8_ - 1 y_12,9_ <= 0
c175: 1 t_12,10_ - 1 y_12,9_ - 1 y_12,10_ <= 0
c176: 1 t_12,11_ - 1 y_12,10_ - 1 y_12,11_ <= 0
c177: 1 t_12,12_ - 1 y_12,11_ - 1 y_12,12_ <= 0
c178: 1 t_12,13_ - 1 y_12,12_ - 1 y_12,13_ <= 0
c179: 1 t_12,14_ - 1 y_12,13_ - 1 y_12,14_ <= 0
c180: 1 t_12,15_ - 1 y_12,14_ <= 0
c181: 1 t_13,1_ - 1 y_13,1_ <= 0
c182: 1 t_13,2_ - 1 y_13,1_ - 1 y_13,2_ <= 0
c183: 1 t_13,3_ - 1 y_13,2_ - 1 y_13,3_ <= 0
c184: 1 t_13,4_ - 1 y_13,3_ - 1 y_13,4_ <= 0
c185: 1 t_13,5_ - 1 y_13,4_ - 1 y_13,5_ <= 0
c186: 1 t_13,6_ - 1 y_13,5_ - 1 y_13,6_ <= 0
c187: 1 t_13,7_ - 1 y_13,6_ - 1 y_13,7_ <= 0
c188: 1 t_13,8_ - 1 y_13,7_ - 1 y_13,8_ <= 0
c189: 1 t_13,9_ - 1 y_13,8_ - 1 y_13,9_ <= 0
c190: 1 t_13,10_ - 1 y_13,9_ - 1 y_13,10_ <= 0
c191: 1 t_13,11_ - 1 y_13,10_ - 1 y_13,11_ <= 0
c192: 1 t_13,12_ - 1 y_13,11_ - 1 y_13,12_ <= 0
c193: 1 t_13,13_ - 1 y_13,12_ - 1 y_13,13_ <= 0
c194: 1 t_13,14_ - 1 y_13,13_ - 1 y_13,14_ <= 0
c195: 1 t_13,15_ - 1 y_13,14_ <= 0
c196: 1 t_14,1_ - 1 y_14,1_ <= 0
c197: 1 t_14,2_ - 1 y_14,1_ - 1 y_14,2_ <= 0
c198: 1 t_14,3_ - 1 y_14,2_ - 1 y_14,3_ <= 0
c199: 1 t_14,4_ - 1 y_14,3_ - 1 y_14,4_ <= 0
c200: 1 t_14,5_ - 1 y_14,4_ - 1 y_14,5_ <= 0
c201: 1 t_14,6_ - 1 y_14,5_ - 1 y_14,6_ <= 0
c202: 1 t_14,7_ - 1 y_14,6_ - 1 y_14,7_ <= 0
c203: 1 t_14,8_ - 1 y_14,7_ - 1 y_14,8_ <= 0
c204: 1 t_14,9_ - 1 y_14,8_ - 1 y_14,9_ <= 0
c205: 1 t_14,10_ - 1 y_14,9_ - 1 y_14,10_ <= 0
c206: 1 t_14,11_ - 1 y_14,10_ - 1 y_14,11_ <= 0
c207: 1 t_14,12_ - 1 y_14,11_ - 1 y_14,12_ <= 0
c208: 1 t_14,13_ - 1 y_14,12_ - 1 y_14,13_ <= 0
c209: 1 t_14,14_ - 1 y_14,13_ - 1 y_14,14_ <= 0
c210: 1 t_14,15_ - 1 y_14,14_ <= 0
c211: 1 t_15,1_ - 1 y_15,1_ <= 0
c212: 1 t_15,2_ - 1 y_15,1_ - 1 y_15,2_ <= 0
c213: 1 t_15,3_ - 1 y_15,2_ - 1 y_15,3_ <= 0
c214: 1 t_15,4_ - 1 y_15,3_ - 1 y_15,4_ <= 0
c215: 1 t_15,5_ - 1 y_15,4_ - 1 y_15,5_ <= 0
c216: 1 t_15,6_ - 1 y_15,5_ - 1 y_15,6_ <= 0
c217: 1 t_15,7_ - 1 y_15,6_ - 1 y_15,7_ <= 0
c218: 1 t_15,8_ - 1 y_15,7_ - 1 y_15,8_ <= 0
c219: 1 t_15,9_ - 1 y_15,8_ - 1 y_15,9_ <= 0
c220: 1 t_15,10_ - 1 y_15,9_ - 1 y_15,10_ <= 0
c221: 1 t_15,11_ - 1 y_15,10_ - 1 y_15,11_ <= 0
c222: 1 t_15,12_ - 1 y_15,11_ - 1 y_15,12_ <= 0
c223: 1 t_15,13_ - 1 y_15,12_ - 1 y_15,13_ <= 0
c224: 1 t_15,14_ - 1 y_15,13_ - 1 y_15,14_ <= 0
c225: 1 t_15,15_ - 1 y_15,14_ <= 0
c226: 4 t_1,1_ + 4 t_2,1_ + 4 t_3,1_ + 4 t_4,1_ + 4 t_5,1_ + 4 t_6,1_ + 4 t_7,1_ + 4 t_8,1_ + 4 t_9,1_ + 4 t_10,1_ + 4 t_11,1_ + 4 t_12,1_ + 4 t_13,1_ + 4 t_14,1_ + 4 t_15,1_ + 2.9387755102040822 t_1,2_ + 2.9387755102040822 t_2,2_ + 2.9387755102040822 t_3,2_ + 2.9387755102040822 t_4,2_ + 2.9387755102040822 t_5,2_ + 2.9387755102040822 t_6,2_ + 2.9387755102040822 t_7,2_ + 2.9387755102040822 t_8,2_ + 2.9387755102040822 t_9,2_ + 2.9387755102040822 t_10,2_ + 2.9387755102040822 t_11,2_ + 2.9387755102040822 t_12,2_ + 2.9387755102040822 t_13,2_ + 2.9387755102040822 t_14,2_ + 2.9387755102040822 t_15,2_ + 2.040816326530613 t_1,3_ + 2.040816326530613 t_2,3_ + 2.040816326530613 t_3,3_ + 2.040816326530613 t_4,3_ + 2.040816326530613 t_5,3_ + 2.040816326530613 t_6,3_ + 2.040816326530613 t_7,3_ + 2.040816326530613 t_8,3_ + 2.040816326530613 t_9,3_ + 2.040816326530613 t_10,3_ + 2.040816326530613 t_11,3_ + 2.040816326530613 t_12,3_ + 2.040816326530613 t_13,3_ + 2.040816326530613 t_14,3_ + 2.040816326530613 t_15,3_ + 1.3061224489795917 t_1,4_ + 1.3061224489795917 t_2,4_ + 1.3061224489795917 t_3,4_ + 1.3061224489795917 t_4,4_ + 1.3061224489795917 t_5,4_ + 1.3061224489795917 t_6,4_ + 1.3061224489795917 t_7,4_ + 1.3061224489795917 t_8,4_ + 1.3061224489795917 t_9,4_ + 1.3061224489795917 t_10,4_ + 1.3061224489795917 t_11,4_ + 1.3061224489795917 t_12,4_ + 1.3061224489795917 t_13,4_ + 1.3061224489795917 t_14,4_ + 1.3061224489795917 t_15,4_ + 0.7346938775510206 t_1,5_ + 0.7346938775510206 t_2,5_ + 0.7346938775510206 t_3,5_ + 0.7346938775510206 t_4,5_ + 0.7346938775510206 t_5,5_ + 0.7346938775510206 t_6,5_ + 0.7346938775510206 t_7,5_ + 0.7346938775510206 t_8,5_ + 0.7346938775510206 t_9,5_ + 0.7346938775510206 t_10,5_ + 0.7346938775510206 t_11,5_ + 0.7346938775510206 t_12,5_ + 0.7346938775510206 t_13,5_ + 0.7346938775510206 t_14,5_ + 0.7346938775510206 t_15,5_ + 0.3265306122448978 t_1,6_ + 0.3265306122448978 t_2,6_ + 0.3265306122448978 t_3,6_ + 0.3265306122448978 t_4,6_ + 0.3265306122448978 t_5,6_ + 0.3265306122448978 t_6,6_ + 0.3265306122448978 t_7,6_ + 0.3265306122448978 t_8,6_ + 0.3265306122448978 t_9,6_ + 0.3265306122448978 t_10,6_ + 0.3265306122448978 t_11,6_ + 0.3265306122448978 t_12,6_ + 0.3265306122448978 t_13,6_ + 0.3265306122448978 t_14,6_ + 0.3265306122448978 t_15,6_ + 0.08163265306122448 t_1,7_ + 0.08163265306122448 t_2,7_ + 0.08163265306122448 t_3,7_ + 0.08163265306122448 t_4,7_ + 0.08163265306122448 t_5,7_ + 0.08163265306122448 t_6,7_ + 0.08163265306122448 t_7,7_ + 0.08163265306122448 t_8,7_ + 0.08163265306122448 t_9,7_ + 0.08163265306122448 t_10,7_ + 0.08163265306122448 t_11,7_ + 0.08163265306122448 t_12,7_ + 0.08163265306122448 t_13,7_ + 0.08163265306122448 t_14,7_ + 0.08163265306122448 t_15,7_ + 0.08163265306122441 t_1,9_ + 0.08163265306122441 t_2,9_ + 0.08163265306122441 t_3,9_ + 0.08163265306122441 t_4,9_ + 0.08163265306122441 t_5,9_ + 0.08163265306122441 t_6,9_ + 0.08163265306122441 t_7,9_ + 0.08163265306122441 t_8,9_ + 0.08163265306122441 t_9,9_ + 0.08163265306122441 t_10,9_ + 0.08163265306122441 t_11,9_ + 0.08163265306122441 t_12,9_ + 0.08163265306122441 t_13,9_ + 0.08163265306122441 t_14,9_ + 0.08163265306122441 t_15,9_ + 0.32653061224489816 t_1,10_ + 0.32653061224489816 t_2,10_ + 0.32653061224489816 t_3,10_ + 0.32653061224489816 t_4,10_ + 0.32653061224489816 t_5,10_ + 0.32653061224489816 t_6,10_ + 0.32653061224489816 t_7,10_ + 0.32653061224489816 t_8,10_ + 0.32653061224489816 t_9,10_ + 0.32653061224489816 t_10,10_ + 0.32653061224489816 t_11,10_ + 0.32653061224489816 t_12,10_ + 0.32653061224489816 t_13,10_ + 0.32653061224489816 t_14,10_ + 0.32653061224489816 t_15,10_ + 0.7346938775510206 t_1,11_ + 0.7346938775510206 t_2,11_ + 0.7346938775510206 t_3,11_ + 0.7346938775510206 t_4,11_ + 0.7346938775510206 t_5,11_ + 0.7346938775510206 t_6,11_ + 0.7346938775510206 t_7,11_ + 0.7346938775510206 t_8,11_ + 0.7346938775510206 t_9,11_ + 0.7346938775510206 t_10,11_ + 0.7346938775510206 t_11,11_ + 0.7346938775510206 t_12,11_ + 0.7346938775510206 t_13,11_ + 0.7346938775510206 t_14,11_ + 0.7346938775510206 t_15,11_ + 1.3061224489795917 t_1,12_ + 1.3061224489795917 t_2,12_ + 1.3061224489795917 t_3,12_ + 1.3061224489795917 t_4,12_ + 1.3061224489795917 t_5,12_ + 1.3061224489795917 t_6,12_ + 1.3061224489795917 t_7,12_ + 1.3061224489795917 t_8,12_ + 1.3061224489795917 t_9,12_ + 1.3061224489795917 t_10,12_ + 1.3061224489795917 t_11,12_ + 1.3061224489795917 t_12,12_ + 1.3061224489795917 t_13,12_ + 1.3061224489795917 t_14,12_ + 1.3061224489795917 t_15,12_ + 2.040816326530612 t_1,13_ + 2.040816326530612 t_2,13_ + 2.040816326530612 t_3,13_ + 2.040816326530612 t_4,13_ + 2.040816326530612 t_5,13_ + 2.040816326530612 t_6,13_ + 2.040816326530612 t_7,13_ + 2.040816326530612 t_8,13_ + 2.040816326530612 t_9,13_ + 2.040816326530612 t_10,13_ + 2.040816326530612 t_11,13_ + 2.040816326530612 t_12,13_ + 2.040816326530612 t_13,13_ + 2.040816326530612 t_14,13_ + 2.040816326530612 t_15,13_ + 2.9387755102040822 t_1,14_ + 2.9387755102040822 t_2,14_ + 2.9387755102040822 t_3,14_ + 2.9387755102040822 t_4,14_ + 2.9387755102040822 t_5,14_ + 2.9387755102040822 t_6,14_ + 2.9387755102040822 t_7,14_ + 2.9387755102040822 t_8,14_ + 2.9387755102040822 t_9,14_ + 2.9387755102040822 t_10,14_ + 2.9387755102040822 t_11,14_ + 2.9387755102040822 t_12,14_ + 2.9387755102040822 t_13,14_ + 2.9387755102040822 t_14,14_ + 2.9387755102040822 t_15,14_ + 4 t_1,15_ + 4 t_2,15_ + 4 t_3,15_ + 4 t_4,15_ + 4 t_5,15_ + 4 t_6,15_ + 4 t_7,15_ + 4 t_8,15_ + 4 t_9,15_ + 4 t_10,15_ + 4 t_11,15_ + 4 t_12,15_ + 4 t_13,15_ + 4 t_14,15_ + 4 t_15,15_ <= 1
c1: 1 y_1,1_ + 1 y_1,2_ + 1 y_1,3_ + 1 y_1,4_ + 1 y_1,5_ + 1 y_1,6_ + 1 y_1,7_ + 1 y_1,8_ + 1 y_1,9_ + 1 y_1,10_ + 1 y_1,11_ + 1 y_1,12_ + 1 y_1,13_ + 1 y_1,14_ = 1
c2: 1 t_1,1_ + 1 t_1,2_ + 1 t_1,3_ + 1 t_1,4_ + 1 t_1,5_ + 1 t_1,6_ + 1 t_1,7_ + 1 t_1,8_ + 1 t_1,9_ + 1 t_1,10_ + 1 t_1,11_ + 1 t_1,12_ + 1 t_1,13_ + 1 t_1,14_ + 1 t_1,15_ = 1
c3: -2 t_1,1_ - 1.7142857142857144 t_1,2_ - 1.4285714285714288 t_1,3_ - 1.1428571428571428 t_1,4_ - 0.8571428571428572 t_1,5_ - 0.5714285714285713 t_1,6_ - 0.2857142857142857 t_1,7_ + 0.2857142857142856 t_1,9_ + 0.5714285714285716 t_1,10_ + 0.8571428571428572 t_1,11_ + 1.1428571428571428 t_1,12_ + 1.4285714285714284 t_1,13_ + 1.7142857142857144 t_1,14_ + 2 t_1,15_ - 1 x_1_ = 0
c4: 1 y_2,1_ + 1 y_2,2_ + 1 y_2,3_ + 1 y_2,4_ + 1 y_2,5_ + 1 y_2,6_ + 1 y_2,7_ + 1 y_2,8_ + 1 y_2,9_ + 1 y_2,10_ + 1 y_2,11_ + 1 y_2,12_ + 1 y_2,13_ + 1 y_2,14_ = 1
c5: 1 t_2,1_ + 1 t_2,2_ + 1 t_2,3_ + 1 t_2,4_ + 1 t_2,5_ + 1 t_2,6_ + 1 t_2,7_ + 1 t_2,8_ + 1 t_2,9_ + 1 t_2,10_ + 1 t_2,11_ + 1 t_2,12_ + 1 t_2,13_ + 1 t_2,14_ + 1 t_2,15_ = 1
c6: -2 t_2,1_ - 1.7142857142857144 t_2,2_ - 1.4285714285714288 t_2,3_ - 1.1428571428571428 t_2,4_ - 0.8571428571428572 t_2,5_ - 0.5714285714285713 t_2,6_ - 0.2857142857142857 t_2,7_ + 0.2857142857142856 t_2,9_ + 0.5714285714285716 t_2,10_ + 0.8571428571428572 t_2,11_ + 1.1428571428571428 t_2,12_ + 1.4285714285714284 t_2,13_ + 1.7142857142857144 t_2,14_ + 2 t_2,15_ - 1 x_2_ = 0
c7: 1 y_3,1_ + 1 y_3,2_ + 1 y_3,3_ + 1 y_3,4_ + 1 y_3,5_ + 1 y_3,6_ + 1 y_3,7_ + 1 y_3,8_ + 1 y_3,9_ + 1 y_3,10_ + 1 y_3,11_ + 1 y_3,12_ + 1 y_3,13_ + 1 y_3,14_ = 1
c8: 1 t_3,1_ + 1 t_3,2_ + 1 t_3,3_ + 1 t_3,4_ + 1 t_3,5_ + 1 t_3,6_ + 1 t_3,7_ + 1 t_3,8_ + 1 t_3,9_ + 1 t_3,10_ + 1 t_3,11_ + 1 t_3,12_ + 1 t_3,13_ + 1 t_3,14_ + 1 t_3,15_ = 1
c9: -2 t_3,1_ - 1.7142857142857144 t_3,2_ - 1.4285714285714288 t_3,3_ - 1.1428571428571428 t_3,4_ - 0.8571428571428572 t_3,5_ - 0.5714285714285713 t_3,6_ - 0.2857142857142857 t_3,7_ + 0.2857142857142856 t_3,9_ + 0.5714285714285716 t_3,10_ + 0.8571428571428572 t_3,11_ + 1.1428571428571428 t_3,12_ + 1.4285714285714284 t_3,13_ + 1.7142857142857144 t_3,14_ + 2 t_3,15_ - 1 x_3_ = 0
c10: 1 y_4,1_ + 1 y_4,2_ + 1 y_4,3_ + 1 y_4,4_ + 1 y_4,5_ + 1 y_4,6_ + 1 y_4,7_ + 1 y_4,8_ + 1 y_4,9_ + 1 y_4,10_ + 1 y_4,11_ + 1 y_4,12_ + 1 y_4,13_ + 1 y_4,14_ = 1
c11: 1 t_4,1_ + 1 t_4,2_ + 1 t_4,3_ + 1 t_4,4_ + 1 t_4,5_ + 1 t_4,6_ + 1 t_4,7_ + 1 t_4,8_ + 1 t_4,9_ + 1 t_4,10_ + 1 t_4,11_ + 1 t_4,12_ + 1 t_4,13_ + 1 t_4,14_ + 1 t_4,15_ = 1
c12: -2 t_4,1_ - 1.7142857142857144 t_4,2_ - 1.4285714285714288 t_4,3_ - 1.1428571428571428 t_4,4_ - 0.8571428571428572 t_4,5_ - 0.5714285714285713 t_4,6_ - 0.2857142857142857 t_4,7_ + 0.2857142857142856 t_4,9_ + 0.5714285714285716 t_4,10_ + 0.8571428571428572 t_4,11_ + 1.1428571428571428 t_4,12_ + 1.4285714285714284 t_4,13_ + 1.7142857142857144 t_4,14_ + 2 t_4,15_ - 1 x_4_ = 0
c13: 1 y_5,1_ + 1 y_5,2_ + 1 y_5,3_ + 1 y_5,4_ + 1 y_5,5_ + 1 y_5,6_ + 1 y_5,7_ + 1 y_5,8_ + 1 y_5,9_ + 1 y_5,10_ + 1 y_5,11_ + 1 y_5,12_ + 1 y_5,13_ + 1 y_5,14_ = 1
c14: 1 t_5,1_ + 1 t_5,2_ + 1 t_5,3_ + 1 t_5,4_ + 1 t_5,5_ + 1 t_5,6_ + 1 t_5,7_ + 1 t_5,8_ + 1 t_5,9_ + 1 t_5,10_ + 1 t_5,11_ + 1 t_5,12_ + 1 t_5,13_ + 1 t_5,14_ + 1 t_5,15_ = 1
c15: -2 t_5,1_ - 1.7142857142857144 t_5,2_ - 1.4285714285714288 t_5,3_ - 1.1428571428571428 t_5,4_ - 0.8571428571428572 t_5,5_ - 0.5714285714285713 t_5,6_ - 0.2857142857142857 t_5,7_ + 0.2857142857142856 t_5,9_ + 0.5714285714285716 t_5,10_ + 0.8571428571428572 t_5,11_ + 1.1428571428571428 t_5,12_ + 1.4285714285714284 t_5,13_ + 1.7142857142857144 t_5,14_ + 2 t_5,15_ - 1 x_5_ = 0
c16: 1 y_6,1_ + 1 y_6,2_ + 1 y_6,3_ + 1 y_6,4_ + 1 y_6,5_ + 1 y_6,6_ + 1 y_6,7_ + 1 y_6,8_ + 1 y_6,9_ + 1 y_6,10_ + 1 y_6,11_ + 1 y_6,12_ + 1 y_6,13_ + 1 y_6,14_ = 1
c17: 1 t_6,1_ + 1 t_6,2_ + 1 t_6,3_ + 1 t_6,4_ + 1 t_6,5_ + 1 t_6,6_ + 1 t_6,7_ + 1 t_6,8_ + 1 t_6,9_ + 1 t_6,10_ + 1 t_6,11_ + 1 t_6,12_ + 1 t_6,13_ + 1 t_6,14_ + 1 t_6,15_ = 1
c18: -2 t_6,1_ - 1.7142857142857144 t_6,2_ - 1.4285714285714288 t_6,3_ - 1.1428571428571428 t_6,4_ - 0.8571428571428572 t_6,5_ - 0.5714285714285713 t_6,6_ - 0.2857142857142857 t_6,7_ + 0.2857142857142856 t_6,9_ + 0.5714285714285716 t_6,10_ + 0.8571428571428572 t_6,11_ + 1.1428571428571428 t_6,12_ + 1.4285714285714284 t_6,13_ + 1.7142857142857144 t_6,14_ + 2 t_6,15_ - 1 x_6_ = 0
c19: 1 y_7,1_ + 1 y_7,2_ + 1 y_7,3_ + 1 y_7,4_ + 1 y_7,5_ + 1 y_7,6_ + 1 y_7,7_ + 1 y_7,8_ + 1 y_7,9_ + 1 y_7,10_ + 1 y_7,11_ + 1 y_7,12_ + 1 y_7,13_ + 1 y_7,14_ = 1
c20: 1 t_7,1_ + 1 t_7,2_ + 1 t_7,3_ + 1 t_7,4_ + 1 t_7,5_ + 1 t_7,6_ + 1 t_7,7_ + 1 t_7,8_ + 1 t_7,9_ + 1 t_7,10_ + 1 t_7,11_ + 1 t_7,12_ + 1 t_7,13_ + 1 t_7,14_ + 1 t_7,15_ = 1
c21: -2 t_7,1_ - 1.7142857142857144 t_7,2_ - 1.4285714285714288 t_7,3_ - 1.1428571428571428 t_7,4_ - 0.8571428571428572 t_7,5_ - 0.5714285714285713 t_7,6_ - 0.2857142857142857 t_7,7_ + 0.2857142857142856 t_7,9_ + 0.5714285714285716 t_7,10_ + 0.8571428571428572 t_7,11_ + 1.1428571428571428 t_7,12_ + 1.4285714285714284 t_7,13_ + 1.7142857142857144 t_7,14_ + 2 t_7,15_ - 1 x_7_ = 0
c22: 1 y_8,1_ + 1 y_8,2_ + 1 y_8,3_ + 1 y_8,4_ + 1 y_8,5_ + 1 y_8,6_ + 1 y_8,7_ + 1 y_8,8_ + 1 y_8,9_ + 1 y_8,10_ + 1 y_8,11_ + 1 y_8,12_ + 1 y_8,13_ + 1 y_8,14_ = 1
c23: 1 t_8,1_ + 1 t_8,2_ + 1 t_8,3_ + 1 t_8,4_ + 1 t_8,5_ + 1 t_8,6_ + 1 t_8,7_ + 1 t_8,8_ + 1 t_8,9_ + 1 t_8,10_ + 1 t_8,11_ + 1 t_8,12_ + 1 t_8,13_ + 1 t_8,14_ + 1 t_8,15_ = 1
c24: -2 t_8,1_ - 1.7142857142857144 t_8,2_ - 1.4285714285714288 t_8,3_ - 1.1428571428571428 t_8,4_ - 0.8571428571428572 t_8,5_ - 0.5714285714285713 t_8,6_ - 0.2857142857142857 t_8,7_ + 0.2857142857142856 t_8,9_ + 0.5714285714285716 t_8,10_ + 0.8571428571428572 t_8,11_ + 1.1428571428571428 t_8,12_ + 1.4285714285714284 t_8,13_ + 1.7142857142857144 t_8,14_ + 2 t_8,15_ - 1 x_8_ = 0
c25: 1 y_9,1_ + 1 y_9,2_ + 1 y_9,3_ + 1 y_9,4_ + 1 y_9,5_ + 1 y_9,6_ + 1 y_9,7_ + 1 y_9,8_ + 1 y_9,9_ + 1 y_9,10_ + 1 y_9,11_ + 1 y_9,12_ + 1 y_9,13_ + 1 y_9,14_ = 1
c26: 1 t_9,1_ + 1 t_9,2_ + 1 t_9,3_ + 1 t_9,4_ + 1 t_9,5_ + 1 t_9,6_ + 1 t_9,7_ + 1 t_9,8_ + 1 t_9,9_ + 1 t_9,10_ + 1 t_9,11_ + 1 t_9,12_ + 1 t_9,13_ + 1 t_9,14_ + 1 t_9,15_ = 1
c27: -2 t_9,1_ - 1.7142857142857144 t_9,2_ - 1.4285714285714288 t_9,3_ - 1.1428571428571428 t_9,4_ - 0.8571428571428572 t_9,5_ - 0.5714285714285713 t_9,6_ - 0.2857142857142857 t_9,7_ + 0.2857142857142856 t_9,9_ + 0.5714285714285716 t_9,10_ + 0.8571428571428572 t_9,11_ + 1.1428571428571428 t_9,12_ + 1.4285714285714284 t_9,13_ + 1.7142857142857144 t_9,14_ + 2 t_9,15_ - 1 x_9_ = 0
c28: 1 y_10,1_ + 1 y_10,2_ + 1 y_10,3_ + 1 y_10,4_ + 1 y_10,5_ + 1 y_10,6_ + 1 y_10,7_ + 1 y_10,8_ + 1 y_10,9_ + 1 y_10,10_ + 1 y_10,11_ + 1 y_10,12_ + 1 y_10,13_ + 1 y_10,14_ = 1
c29: 1 t_10,1_ + 1 t_10,2_ + 1 t_10,3_ + 1 t_10,4_ + 1 t_10,5_ + 1 t_10,6_ + 1 t_10,7_ + 1 t_10,8_ + 1 t_10,9_ + 1 t_10,10_ + 1 t_10,11_ + 1 t_10,12_ + 1 t_10,13_ + 1 t_10,14_ + 1 t_10,15_ = 1
c30: -2 t_10,1_ - 1.7142857142857144 t_10,2_ - 1.4285714285714288 t_10,3_ - 1.1428571428571428 t_10,4_ - 0.8571428571428572 t_10,5_ - 0.5714285714285713 t_10,6_ - 0.2857142857142857 t_10,7_ + 0.2857142857142856 t_10,9_ + 0.5714285714285716 t_10,10_ + 0.8571428571428572 t_10,11_ + 1.1428571428571428 t_10,12_ + 1.4285714285714284 t_10,13_ + 1.7142857142857144 t_10,14_ + 2 t_10,15_ - 1 x_10_ = 0
c31: 1 y_11,1_ + 1 y_11,2_ + 1 y_11,3_ + 1 y_11,4_ + 1 y_11,5_ + 1 y_11,6_ + 1 y_11,7_ + 1 y_11,8_ + 1 y_11,9_ + 1 y_11,10_ + 1 y_11,11_ + 1 y_11,12_ + 1 y_11,13_ + 1 y_11,14_ = 1
c32: 1 t_11,1_ + 1 t_11,2_ + 1 t_11,3_ + 1 t_11,4_ + 1 t_11,5_ + 1 t_11,6_ + 1 t_11,7_ + 1 t_11,8_ + 1 t_11,9_ + 1 t_11,10_ + 1 t_11,11_ + 1 t_11,12_ + 1 t_11,13_ + 1 t_11,14_ + 1 t_11,15_ = 1
c33: -2 t_11,1_ - 1.7142857142857144 t_11,2_ - 1.4285714285714288 t_11,3_ - 1.1428571428571428 t_11,4_ - 0.8571428571428572 t_11,5_ - 0.5714285714285713 t_11,6_ - 0.2857142857142857 t_11,7_ + 0.2857142857142856 t_11,9_ + 0.5714285714285716 t_11,10_ + 0.8571428571428572 t_11,11_ + 1.1428571428571428 t_11,12_ + 1.4285714285714284 t_11,13_ + 1.7142857142857144 t_11,14_ + 2 t_11,15_ - 1 x_11_ = 0
c34: 1 y_12,1_ + 1 y_12,2_ + 1 y_12,3_ + 1 y_12,4_ + 1 y_12,5_ + 1 y_12,6_ + 1 y_12,7_ + 1 y_12,8_ + 1 y_12,9_ + 1 y_12,10_ + 1 y_12,11_ + 1 y_12,12_ + 1 y_12,13_ + 1 y_12,14_ = 1
c35: 1 t_12,1_ + 1 t_12,2_ + 1 t_12,3_ + 1 t_12,4_ + 1 t_12,5_ + 1 t_12,6_ + 1 t_12,7_ + 1 t_12,8_ + 1 t_12,9_ + 1 t_12,10_ + 1 t_12,11_ + 1 t_12,12_ + 1 t_12,13_ + 1 t_12,14_ + 1 t_12,15_ = 1
c36: -2 t_12,1_ - 1.7142857142857144 t_12,2_ - 1.4285714285714288 t_12,3_ - 1.1428571428571428 t_12,4_ - 0.8571428571428572 t_12,5_ - 0.5714285714285713 t_12,6_ - 0.2857142857142857 t_12,7_ + 0.2857142857142856 t_12,9_ + 0.5714285714285716 t_12,10_ + 0.8571428571428572 t_12,11_ + 1.1428571428571428 t_12,12_ + 1.4285714285714284 t_12,13_ + 1.7142857142857144 t_12,14_ + 2 t_12,15_ - 1 x_12_ = 0
c37: 1 y_13,1_ + 1 y_13,2_ + 1 y_13,3_ + 1 y_13,4_ + 1 y_13,5_ + 1 y_13,6_ + 1 y_13,7_ + 1 y_13,8_ + 1 y_13,9_ + 1 y_13,10_ + 1 y_13,11_ + 1 y_13,12_ + 1 y_13,13_ + 1 y_13,14_ = 1
c38: 1 t_13,1_ + 1 t_13,2_ + 1 t_13,3_ + 1 t_13,4_ + 1 t_13,5_ + 1 t_13,6_ + 1 t_13,7_ + 1 t_13,8_ + 1 t_13,9_ + 1 t_13,10_ + 1 t_13,11_ + 1 t_13,12_ + 1 t_13,13_ + 1 t_13,14_ + 1 t_13,15_ = 1
c39: -2 t_13,1_ - 1.7142857142857144 t_13,2_ - 1.4285714285714288 t_13,3_ - 1.1428571428571428 t_13,4_ - 0.8571428571428572 t_13,5_ - 0.5714285714285713 t_13,6_ - 0.2857142857142857 t_13,7_ + 0.2857142857142856 t_13,9_ + 0.5714285714285716 t_13,10_ + 0.8571428571428572 t_13,11_ + 1.1428571428571428 t_13,12_ + 1.4285714285714284 t_13,13_ + 1.7142857142857144 t_13,14_ + 2 t_13,15_ - 1 x_13_ = 0
c40: 1 y_14,1_ + 1 y_14,2_ + 1 y_14,3_ + 1 y_14,4_ + 1 y_14,5_ + 1 y_14,6_ + 1 y_14,7_ + 1 y_14,8_ + 1 y_14,9_ + 1 y_14,10_ + 1 y_14,11_ + 1 y_14,12_ + 1 y_14,13_ + 1 y_14,14_ = 1
c41: 1 t_14,1_ + 1 t_14,2_ + 1 t_14,3_ + 1 t_14,4_ + 1 t_14,5_ + 1 t_14,6_ + 1 t_14,7_ + 1 t_14,8_ + 1 t_14,9_ + 1 t_14,10_ + 1 t_14,11_ + 1 t_14,12_ + 1 t_14,13_ + 1 t_14,14_ + 1 t_14,15_ = 1
c42: -2 t_14,1_ - 1.7142857142857144 t_14,2_ - 1.4285714285714288 t_14,3_ - 1.1428571428571428 t_14,4_ - 0.8571428571428572 t_14,5_ - 0.5714285714285713 t_14,6_ - 0.2857142857142857 t_14,7_ + 0.2857142857142856 t_14,9_ + 0.5714285714285716 t_14,10_ + 0.8571428571428572 t_14,11_ + 1.1428571428571428 t_14,12_ + 1.4285714285714284 t_14,13_ + 1.7142857142857144 t_14,14_ + 2 t_14,15_ - 1 x_14_ = 0
c43: 1 y_15,1_ + 1 y_15,2_ + 1 y_15,3_ + 1 y_15,4_ + 1 y_15,5_ + 1 y_15,6_ + 1 y_15,7_ + 1 y_15,8_ + 1 y_15,9_ + 1 y_15,10_ + 1 y_15,11_ + 1 y_15,12_ + 1 y_15,13_ + 1 y_15,14_ = 1
c44: 1 t_15,1_ + 1 t_15,2_ + 1 t_15,3_ + 1 t_15,4_ + 1 t_15,5_ + 1 t_15,6_ + 1 t_15,7_ + 1 t_15,8_ + 1 t_15,9_ + 1 t_15,10_ + 1 t_15,11_ + 1 t_15,12_ + 1 t_15,13_ + 1 t_15,14_ + 1 t_15,15_ = 1
c45: -2 t_15,1_ - 1.7142857142857144 t_15,2_ - 1.4285714285714288 t_15,3_ - 1.1428571428571428 t_15,4_ - 0.8571428571428572 t_15,5_ - 0.5714285714285713 t_15,6_ - 0.2857142857142857 t_15,7_ + 0.2857142857142856 t_15,9_ + 0.5714285714285716 t_15,10_ + 0.8571428571428572 t_15,11_ + 1.1428571428571428 t_15,12_ + 1.4285714285714284 t_15,13_ + 1.7142857142857144 t_15,14_ + 2 t_15,15_ - 1 x_15_ = 0
Bounds
x_1_ <= 2
x_2_ <= 2
x_3_ <= 2
x_4_ <= 2
x_5_ <= 2
x_6_ <= 2
x_7_ <= 2
x_8_ <= 2
x_9_ <= 2
x_10_ <= 2
x_11_ <= 2
x_12_ <= 2
x_13_ <= 2
x_14_ <= 2
x_15_ <= 2
t_1,1_ >= 0
t_2,1_ >= 0
t_3,1_ >= 0
t_4,1_ >= 0
t_5,1_ >= 0
t_6,1_ >= 0
t_7,1_ >= 0
t_8,1_ >= 0
t_9,1_ >= 0
t_10,1_ >= 0
t_11,1_ >= 0
t_12,1_ >= 0
t_13,1_ >= 0
t_14,1_ >= 0
t_15,1_ >= 0
t_1,2_ >= 0
t_2,2_ >= 0
t_3,2_ >= 0
t_4,2_ >= 0
t_5,2_ >= 0
t_6,2_ >= 0
t_7,2_ >= 0
t_8,2_ >= 0
t_9,2_ >= 0
t_10,2_ >= 0
t_11,2_ >= 0
t_12,2_ >= 0
t_13,2_ >= 0
t_14,2_ >= 0
t_15,2_ >= 0
t_1,3_ >= 0
t_2,3_ >= 0
t_3,3_ >= 0
t_4,3_ >= 0
t_5,3_ >= 0
t_6,3_ >= 0
t_7,3_ >= 0
t_8,3_ >= 0
t_9,3_ >= 0
t_10,3_ >= 0
t_11,3_ >= 0
t_12,3_ >= 0
t_13,3_ >= 0
t_14,3_ >= 0
t_15,3_ >= 0
t_1,4_ >= 0
t_2,4_ >= 0
t_3,4_ >= 0
t_4,4_ >= 0
t_5,4_ >= 0
t_6,4_ >= 0
t_7,4_ >= 0
t_8,4_ >= 0
t_9,4_ >= 0
t_10,4_ >= 0
t_11,4_ >= 0
t_12,4_ >= 0
t_13,4_ >= 0
t_14,4_ >= 0
t_15,4_ >= 0
t_1,5_ >= 0
t_2,5_ >= 0
t_3,5_ >= 0
t_4,5_ >= 0
t_5,5_ >= 0
t_6,5_ >= 0
t_7,5_ >= 0
t_8,5_ >= 0
t_9,5_ >= 0
t_10,5_ >= 0
t_11,5_ >= 0
t_12,5_ >= 0
t_13,5_ >= 0
t_14,5_ >= 0
t_15,5_ >= 0
t_1,6_ >= 0
t_2,6_ >= 0
t_3,6_ >= 0
t_4,6_ >= 0
t_5,6_ >= 0
t_6,6_ >= 0
t_7,6_ >= 0
t_8,6_ >= 0
t_9,6_ >= 0
t_10,6_ >= 0
t_11,6_ >= 0
t_12,6_ >= 0
t_13,6_ >= 0
t_14,6_ >= 0
t_15,6_ >= 0
t_1,7_ >= 0
t_2,7_ >= 0
t_3,7_ >= 0
t_4,7_ >= 0
t_5,7_ >= 0
t_6,7_ >= 0
t_7,7_ >= 0
t_8,7_ >= 0
t_9,7_ >= 0
t_10,7_ >= 0
t_11,7_ >= 0
t_12,7_ >= 0
t_13,7_ >= 0
t_14,7_ >= 0
t_15,7_ >= 0
t_1,8_ >= 0
t_2,8_ >= 0
t_3,8_ >= 0
t_4,8_ >= 0
t_5,8_ >= 0
t_6,8_ >= 0
t_7,8_ >= 0
t_8,8_ >= 0
t_9,8_ >= 0
t_10,8_ >= 0
t_11,8_ >= 0
t_12,8_ >= 0
t_13,8_ >= 0
t_14,8_ >= 0
t_15,8_ >= 0
t_1,9_ >= 0
t_2,9_ >= 0
t_3,9_ >= 0
t_4,9_ >= 0
t_5,9_ >= 0
t_6,9_ >= 0
t_7,9_ >= 0
t_8,9_ >= 0
t_9,9_ >= 0
t_10,9_ >= 0
t_11,9_ >= 0
t_12,9_ >= 0
t_13,9_ >= 0
t_14,9_ >= 0
t_15,9_ >= 0
t_1,10_ >= 0
t_2,10_ >= 0
t_3,10_ >= 0
t_4,10_ >= 0
t_5,10_ >= 0
t_6,10_ >= 0
t_7,10_ >= 0
t_8,10_ >= 0
t_9,10_ >= 0
t_10,10_ >= 0
t_11,10_ >= 0
t_12,10_ >= 0
t_13,10_ >= 0
t_14,10_ >= 0
t_15,10_ >= 0
t_1,11_ >= 0
t_2,11_ >= 0
t_3,11_ >= 0
t_4,11_ >= 0
t_5,11_ >= 0
t_6,11_ >= 0
t_7,11_ >= 0
t_8,11_ >= 0
t_9,11_ >= 0
t_10,11_ >= 0
t_11,11_ >= 0
t_12,11_ >= 0
t_13,11_ >= 0
t_14,11_ >= 0
t_15,11_ >= 0
t_1,12_ >= 0
t_2,12_ >= 0
t_3,12_ >= 0
t_4,12_ >= 0
t_5,12_ >= 0
t_6,12_ >= 0
t_7,12_ >= 0
t_8,12_ >= 0
t_9,12_ >= 0
t_10,12_ >= 0
t_11,12_ >= 0
t_12,12_ >= 0
t_13,12_ >= 0
t_14,12_ >= 0
t_15,12_ >= 0
t_1,13_ >= 0
t_2,13_ >= 0
t_3,13_ >= 0
t_4,13_ >= 0
t_5,13_ >= 0
t_6,13_ >= 0
t_7,13_ >= 0
t_8,13_ >= 0
t_9,13_ >= 0
t_10,13_ >= 0
t_11,13_ >= 0
t_12,13_ >= 0
t_13,13_ >= 0
t_14,13_ >= 0
t_15,13_ >= 0
t_1,14_ >= 0
t_2,14_ >= 0
t_3,14_ >= 0
t_4,14_ >= 0
t_5,14_ >= 0
t_6,14_ >= 0
t_7,14_ >= 0
t_8,14_ >= 0
t_9,14_ >= 0
t_10,14_ >= 0
t_11,14_ >= 0
t_12,14_ >= 0
t_13,14_ >= 0
t_14,14_ >= 0
t_15,14_ >= 0
t_1,15_ >= 0
t_2,15_ >= 0
t_3,15_ >= 0
t_4,15_ >= 0
t_5,15_ >= 0
t_6,15_ >= 0
t_7,15_ >= 0
t_8,15_ >= 0
t_9,15_ >= 0
t_10,15_ >= 0
t_11,15_ >= 0
t_12,15_ >= 0
t_13,15_ >= 0
t_14,15_ >= 0
t_15,15_ >= 0
x_1_ >= -2
x_2_ >= -2
x_3_ >= -2
x_4_ >= -2
x_5_ >= -2
x_6_ >= -2
x_7_ >= -2
x_8_ >= -2
x_9_ >= -2
x_10_ >= -2
x_11_ >= -2
x_12_ >= -2
x_13_ >= -2
x_14_ >= -2
x_15_ >= -2
Binary
y_1,1_
y_2,1_
y_3,1_
y_4,1_
y_5,1_
y_6,1_
y_7,1_
y_8,1_
y_9,1_
y_10,1_
y_11,1_
y_12,1_
y_13,1_
y_14,1_
y_15,1_
y_1,2_
y_2,2_
y_3,2_
y_4,2_
y_5,2_
y_6,2_
y_7,2_
y_8,2_
y_9,2_
y_10,2_
y_11,2_
y_12,2_
y_13,2_
y_14,2_
y_15,2_
y_1,3_
y_2,3_
y_3,3_
y_4,3_
y_5,3_
y_6,3_
y_7,3_
y_8,3_
y_9,3_
y_10,3_
y_11,3_
y_12,3_
y_13,3_
y_14,3_
y_15,3_
y_1,4_
y_2,4_
y_3,4_
y_4,4_
y_5,4_
y_6,4_
y_7,4_
y_8,4_
y_9,4_
y_10,4_
y_11,4_
y_12,4_
y_13,4_
y_14,4_
y_15,4_
y_1,5_
y_2,5_
y_3,5_
y_4,5_
y_5,5_
y_6,5_
y_7,5_
y_8,5_
y_9,5_
y_10,5_
y_11,5_
y_12,5_
y_13,5_
y_14,5_
y_15,5_
y_1,6_
y_2,6_
y_3,6_
y_4,6_
y_5,6_
y_6,6_
y_7,6_
y_8,6_
y_9,6_
y_10,6_
y_11,6_
y_12,6_
y_13,6_
y_14,6_
y_15,6_
y_1,7_
y_2,7_
y_3,7_
y_4,7_
y_5,7_
y_6,7_
y_7,7_
y_8,7_
y_9,7_
y_10,7_
y_11,7_
y_12,7_
y_13,7_
y_14,7_
y_15,7_
y_1,8_
y_2,8_
y_3,8_
y_4,8_
y_5,8_
y_6,8_
y_7,8_
y_8,8_
y_9,8_
y_10,8_
y_11,8_
y_12,8_
y_13,8_
y_14,8_
y_15,8_
y_1,9_
y_2,9_
y_3,9_
y_4,9_
y_5,9_
y_6,9_
y_7,9_
y_8,9_
y_9,9_
y_10,9_
y_11,9_
y_12,9_
y_13,9_
y_14,9_
y_15,9_
y_1,10_
y_2,10_
y_3,10_
y_4,10_
y_5,10_
y_6,10_
y_7,10_
y_8,10_
y_9,10_
y_10,10_
y_11,10_
y_12,10_
y_13,10_
y_14,10_
y_15,10_
y_1,11_
y_2,11_
y_3,11_
y_4,11_
y_5,11_
y_6,11_
y_7,11_
y_8,11_
y_9,11_
y_10,11_
y_11,11_
y_12,11_
y_13,11_
y_14,11_
y_15,11_
y_1,12_
y_2,12_
y_3,12_
y_4,12_
y_5,12_
y_6,12_
y_7,12_
y_8,12_
y_9,12_
y_10,12_
y_11,12_
y_12,12_
y_13,12_
y_14,12_
y_15,12_
y_1,13_
y_2,13_
y_3,13_
y_4,13_
y_5,13_
y_6,13_
y_7,13_
y_8,13_
y_9,13_
y_10,13_
y_11,13_
y_12,13_
y_13,13_
y_14,13_
y_15,13_
y_1,14_
y_2,14_
y_3,14_
y_4,14_
y_5,14_
y_6,14_
y_7,14_
y_8,14_
y_9,14_
y_10,14_
y_11,14_
y_12,14_
y_13,14_
y_14,14_
y_15,14_
End
